\* The Whiskas Problem *\
Minimize
OBJ: 510 Melon + 1290 Papaya + 1200 Sandia
Subject To
FatRequirement: 0.1 Melon + 0.08 Papaya >= 6
FibreRequirement: 0.005 Melon + 0.001 Papaya <= 2
PercentagesSum: Melon + Papaya = 100
ProteinRequirement: 0.2 Melon + 0.1 Papaya >= 8
SaltRequirement: 0.005 Melon + 0.002 Papaya <= 0.4
Bounds
0 <= Papaya
Generals
Papaya
End
